certificates/rado_a15_c212_N28.cnf
c Rad2 upper bound instance: x1 + 15*x2 - x3 = 212, interval [1,28]
p cnf 28 104
1 14 15 0
-1 -14 -15 0
2 15 0
-2 -15 0
1 3 14 0
-1 -3 -14 0
3 15 16 0
-3 -15 -16 0
2 4 14 0
-2 -4 -14 0
4 15 17 0
-4 -15 -17 0
3 5 14 0
-3 -5 -14 0
5 15 18 0
-5 -15 -18 0
4 6 14 0
-4 -6 -14 0
6 15 19 0
-6 -15 -19 0
5 7 14 0
-5 -7 -14 0
7 15 20 0
-7 -15 -20 0
6 8 14 0
-6 -8 -14 0
8 15 21 0
-8 -15 -21 0
7 9 14 0
-7 -9 -14 0
9 15 22 0
-9 -15 -22 0
8 10 14 0
-8 -10 -14 0
10 15 23 0
-10 -15 -23 0
9 11 14 0
-9 -11 -14 0
11 15 24 0
-11 -15 -24 0
10 12 14 0
-10 -12 -14 0
12 15 25 0
-12 -15 -25 0
11 13 14 0
-11 -13 -14 0
13 15 26 0
-13 -15 -26 0
12 14 0
-12 -14 0
14 15 27 0
-14 -15 -27 0
13 14 15 0
-13 -14 -15 0
15 28 0
-15 -28 0
14 16 0
-14 -16 0
14 15 17 0
-14 -15 -17 0
1 13 18 0
-1 -13 -18 0
14 16 18 0
-14 -16 -18 0
2 13 19 0
-2 -13 -19 0
14 17 19 0
-14 -17 -19 0
3 13 20 0
-3 -13 -20 0
14 18 20 0
-14 -18 -20 0
4 13 21 0
-4 -13 -21 0
14 19 21 0
-14 -19 -21 0
5 13 22 0
-5 -13 -22 0
14 20 22 0
-14 -20 -22 0
6 13 23 0
-6 -13 -23 0
14 21 23 0
-14 -21 -23 0
7 13 24 0
-7 -13 -24 0
14 22 24 0
-14 -22 -24 0
8 13 25 0
-8 -13 -25 0
14 23 25 0
-14 -23 -25 0
9 13 26 0
-9 -13 -26 0
14 24 26 0
-14 -24 -26 0
10 13 27 0
-10 -13 -27 0
14 25 27 0
-14 -25 -27 0
11 13 28 0
-11 -13 -28 0
14 26 28 0
-14 -26 -28 0
